data;

param T:=5;
param cI:= [1] 2 [2] 3 [3] 3 [4] 1 [5] 3;
param cB:= [1] 5 [2] 5 [3] 6 [4] 6 [5] 6;
param c:= [1] 2 [2] 1 [3] 2 [4] 4 [5] 3;
param d:= [1] 10 [2] 20 [3] 30 [4] 60 [5] 50;
param u:= [1] 5 [2] 10 [3] 40 [4] 100 [5] 20;


end;




